10	5
0	2	8	1
1	2	2	9
2	2	4	10
3	1	6
4	1	5
5	1	3
6	1	11
7	1	11
8	1	11
9	1	11
10	1	11
11	0
0	0	0	0	0	0	0
1	8	4	2	1	5	5
2	9	4	0	0	0	2
3	4	2	0	0	0	0
4	4	5	5	2	0	3
5	3	5	0	0	0	4
6	3	0	2	0	1	2
7	8	0	0	0	5	0
8	3	2	3	0	0	0
9	6	0	5	0	0	1
10	9	0	1	4	4	0
11	0	0	0	0	0	0
5	6	4	5	5
